50
120
100
93
93
89
89
87
81
81
79
78
77
70
68
67
66
66
65
64
62
61
60
57
53
53
52
52
52
48
44
44
43
43
42
41
39
39
37
35
34
30
30
29
26
25
16
16
10
10
7
6
